DATASET = "thpack4";
INSTANCE = "033";

WIDTH = 233;
HEIGHT = 220;
LENGTH = 587;

NO_OF_SHAPES = 10;
size = [|
  40,36,21 |
  76,45,31 |
  63,54,51 |
  114,77,69 |
  95,57,53 |
  92,36,20 |
  90,84,47 |
  84,69,24 |
  57,35,35 |
  78,76,50 |
|];

verticality = [|
  1,1,1 |
  0,1,1 |
  1,1,1 |
  1,1,1 |
  1,1,1 |
  0,1,1 |
  1,1,1 |
  0,0,1 |
  1,1,1 |
  1,1,1 |
|];

box_count = [
  12,
  11,
  14,
  15,
  15,
  11,
  17,
  12,
  14,
  11,
];
